(set-logic QF_UF)
(declare-fun car () Bool)
(declare-fun circuit () Bool)
(declare-fun clk () Bool)
(declare-fun prt () Bool)
(assert (= (not prt) (not prt)))
(assert (= (not car) (not car)))
(assert (= (not (not clk)) clk))
(assert (not (= (or (not prt) (not car) (not (not clk))) (or (not prt) (not car) clk))))
(check-sat)
(exit)
